(declare-fun _for_it_107 () Int)
(declare-fun kfdia () Int)
(declare-fun kidia () Int)
(declare-fun klev () Int)
(declare-fun ncldtop () Int)

(assert (forall ((_if_cond_79_val (Array Int Int)))
  (and
    (forall ((_for_it_108_0 Int) (_for_it_108_1 Int))
      (or
        (not (= (- (+ _for_it_108_0 1) 1) _for_it_108_1))
        (not (<= _for_it_108_1 (+ kfdia (- 1))))
        (not (= (- (+ _for_it_107 1) 1) (+ _for_it_107 1)))
        (not (<= (+ kidia (- 1)) _for_it_108_1))
        (not (= (select _if_cond_79_val 0) 1))
        (not (<= _for_it_108_0 (+ kfdia (- 1))))
        (not (<= (+ kidia (- 1)) _for_it_108_0))
      )
    )
    (forall ((_for_it_108_0 Int) (_for_it_108_1 Int))
      (or
        (not (<= _for_it_108_1 (+ kfdia (- 1))))
        (not (<= (+ kidia (- 1)) _for_it_108_1))
        (not (<= _for_it_108_0 (+ kfdia (- 1))))
        (not (= (select _if_cond_79_val 0) 1))
        (not (<= (+ kidia (- 1)) _for_it_108_0))
        (not (= _for_it_108_0 _for_it_108_1))
        (not (= _for_it_107 (+ _for_it_107 1)))
      )
    )
    (forall ((_for_it_108_0 Int) (_for_it_108_1 Int))
      (or
        (and
          (or
            (not (= _for_it_107 (+ _for_it_107 1)))
            (not (= _for_it_108_0 _for_it_108_1))
          )
          (or
            (not (= _for_it_107 4))
            (not (= _for_it_108_0 _for_it_108_1))
          )
        )
        (not (<= _for_it_108_1 (+ kfdia (- 1))))
        (not (<= (+ kidia (- 1)) _for_it_108_1))
        (not (<= _for_it_108_0 (+ kfdia (- 1))))
        (not (= (select _if_cond_79_val 0) 1))
        (not (<= (+ kidia (- 1)) _for_it_108_0))
      )
    )
    (forall ((_for_it_108_0 Int) (_for_it_108_1 Int))
      (or
        (and
          (or
            (not (= _for_it_107 (+ _for_it_107 1)))
            (not (= _for_it_108_0 _for_it_108_1))
          )
          (or
            (not (= 4 (+ _for_it_107 1)))
            (not (= _for_it_108_0 _for_it_108_1))
          )
        )
        (not (<= _for_it_108_1 (+ kfdia (- 1))))
        (not (<= (+ kidia (- 1)) _for_it_108_1))
        (not (<= _for_it_108_0 (+ kfdia (- 1))))
        (not (= (select _if_cond_79_val 0) 1))
        (not (<= (+ kidia (- 1)) _for_it_108_0))
      )
    )
    (forall ((_for_it_108_0 Int) (_for_it_108_1 Int))
      (or
        (not (<= _for_it_108_1 (+ kfdia (- 1))))
        (not (= _for_it_107 (- (+ _for_it_107 2) 1)))
        (not (<= (+ kidia (- 1)) _for_it_108_1))
        (not (= _for_it_108_0 (- (+ _for_it_108_1 1) 1)))
        (not (= (select _if_cond_79_val 0) 1))
        (not (<= _for_it_108_0 (+ kfdia (- 1))))
        (not (<= (+ kidia (- 1)) _for_it_108_0))
      )
    )
    (forall ((_for_it_108_0 Int) (_for_it_108_1 Int))
      (or
        (not (<= _for_it_108_1 (+ kfdia (- 1))))
        (not (<= (+ kidia (- 1)) _for_it_108_1))
        (and
          (or
            (not (= _for_it_107 4))
            (not (= _for_it_108_0 _for_it_108_1))
          )
          (or
            (not (= 4 (+ _for_it_107 1)))
            (not (= _for_it_108_0 _for_it_108_1))
          )
          (not (= _for_it_108_0 _for_it_108_1))
        )
        (not (<= _for_it_108_0 (+ kfdia (- 1))))
        (not (= (select _if_cond_79_val 0) 1))
        (not (<= (+ kidia (- 1)) _for_it_108_0))
      )
    )
    (and
      (<= (+ _for_it_107 1) 3)
      (<= kidia (+ kfdia (- 1)))
      (<= ncldtop (+ klev (- 1)))
      (<= 0 _for_it_107)
    )
    (forall ((_for_it_108_0 Int) (_for_it_108_1 Int))
      (or
        (not (= 4 (- (+ _for_it_107 2) 1)))
        (not (<= _for_it_108_1 (+ kfdia (- 1))))
        (not (<= (+ kidia (- 1)) _for_it_108_1))
        (not (= _for_it_108_0 (- (+ _for_it_108_1 1) 1)))
        (not (= (select _if_cond_79_val 0) 1))
        (not (<= _for_it_108_0 (+ kfdia (- 1))))
        (not (<= (+ kidia (- 1)) _for_it_108_0))
      )
    )
    (forall ((_for_it_108_0 Int) (_for_it_108_1 Int))
      (or
        (not (<= (+ kidia (- 1)) _for_it_108_1))
        (not (<= _for_it_108_0 (+ kfdia (- 1))))
        (not (<= (+ kidia (- 1)) _for_it_108_0))
        (not (<= _for_it_108_1 (+ kfdia (- 1))))
      )
    )
    (forall ((_for_it_108_0 Int) (_for_it_108_1 Int))
      (or
        (not (= (- (+ _for_it_108_0 1) 1) _for_it_108_1))
        (not (= (- (+ _for_it_107 1) 1) 4))
        (not (<= _for_it_108_1 (+ kfdia (- 1))))
        (not (<= (+ kidia (- 1)) _for_it_108_1))
        (not (= (select _if_cond_79_val 0) 1))
        (not (<= _for_it_108_0 (+ kfdia (- 1))))
        (not (<= (+ kidia (- 1)) _for_it_108_0))
      )
    )
  )
))

(check-sat)